(set-logic ALL)
(declare-const k Int)
(declare-fun s () (_ BitVec k))
(declare-fun t () (_ BitVec k))
(assert (not (distinct (distinct s (bvurem s (bvnot (_ bv1 k)))) (bvule (bvnot s) (_ bv1 k)))))
(check-sat)
